
  32    1
  10

   0   0   6 2 4 5 6 8 9 
   8   1   4 16 13 12 3 
   5   1   6 20 18 15 14 11 10 
   6   1   4 20 17 15 7 
   8   1   4 18 14 13 11 
   2   2   6 25 21 20 19 17 15 
   9   3   3 21 18 13 
   4   2   5 25 20 19 17 15 
   9   1   4 22 20 17 11 
   9   5   5 25 24 22 19 17 
   7   2   7 31 30 29 28 24 23 21 
   3   2   5 30 29 24 21 19 
   1   1   4 31 24 22 19 
   2   2   3 29 24 17 
   8   3   6 31 30 29 28 27 23 
   7   2   4 29 25 24 23 
   6   2   4 31 30 28 23 
   1   2   4 30 27 26 25 
   9   2   3 28 27 23 
   2   2   2 26 24 
   4   1   2 27 26 
   9   3   2 29 26 
  10   2   1 26 
   3   3   1 27 
   3   1   1 28 
  10   1   1 32
   3   2   1 32
   5   3   1 32
   9   2   1 32
   9   3   1 32
   4   2   1 32
   0   0   0 
